words_hard_train/2485.qaiger
aag 128 24 0 1 104
2
4
8
10
22
24
36
38
50
52
64
66
78
80
92
96
162
170
174
182
186
210
230
240
257
6 2 4
12 9 11
14 8 10
16 13 15
18 6 16
20 19 15
26 23 25
28 22 24
30 27 29
32 21 30
34 33 29
40 37 39
42 36 38
44 41 43
46 35 44
48 47 43
54 51 53
56 50 52
58 55 57
60 49 58
62 61 57
68 65 67
70 64 66
72 69 71
74 63 72
76 75 71
82 79 81
84 78 80
86 83 85
88 77 86
90 89 85
94 90 92
98 95 97
100 91 93
102 98 101
104 7 17
106 105 19
108 107 11
110 7 2
112 111 5
114 108 112
116 20 31
118 117 33
120 119 25
122 114 120
124 34 45
126 125 47
128 127 39
130 122 128
132 48 59
134 133 61
136 135 53
138 130 136
140 62 73
142 141 75
144 143 67
146 138 144
148 76 87
150 149 89
152 151 81
154 146 152
156 103 154
158 139 145
160 159 147
164 161 163
166 123 129
168 167 131
172 169 171
176 121 175
178 177 123
180 120 174
184 113 183
188 109 187
190 185 189
192 181 191
194 108 186
196 192 195
198 178 197
200 173 198
202 168 170
204 201 203
206 131 137
208 207 139
212 208 210
214 204 213
216 209 211
218 215 217
220 165 218
222 160 162
224 221 223
226 147 153
228 227 155
232 228 230
234 224 233
236 229 231
238 235 237
242 238 241
244 156 242
246 157 243
248 102 155
250 239 240
252 249 251
254 246 253
256 245 255
i0 1 x1[0]
i1 1 x2[0]
i2 1 x1[1]
i3 1 x2[1]
i4 1 x1[2]
i5 1 x2[2]
i6 1 x1[3]
i7 1 x2[3]
i8 1 x1[4]
i9 1 x2[4]
i10 1 x1[5]
i11 1 x2[5]
i12 1 x1[6]
i13 1 x2[6]
i14 1 x1[7]
i15 1 x2[7]
i16 2 y2[2]
i17 2 y2[4]
i18 2 y2[5]
i19 2 y2[7]
i20 2 y2[6]
i21 2 y2[3]
i22 2 y2[1]
i23 2 y2[0]
o0 bv[0]
c
simplified
  >
    or
      add
        1 x1
        1 x2
      1 x2
    reverse
      2 y2
