words_hard_train/2485.qaiger.qdimacs
p cnf 128 313
a 32 1 2 33 4 5 39 40 11 12 46 48 18 19 25 26 0
e 3 6 7 8 9 10 13 14 15 16 17 20 21 22 23 24 27 28 29 30 31 34 35 36 37 38 41 42 43 44 45 47 49 50 51 52 53 54 55 56 57 58 59 60 61 62 63 64 65 66 67 68 69 70 71 72 73 74 75 76 77 78 79 80 81 82 83 84 85 86 87 88 89 90 91 92 93 94 95 96 97 98 99 100 101 102 103 104 105 106 107 108 109 110 111 112 113 114 115 116 117 118 119 120 121 122 123 124 125 126 127 128 0
-1 -2 3 0
1 -3 0
2 -3 0
4 5 6 0
-4 -6 0
-5 -6 0
-4 -5 7 0
4 -7 0
5 -7 0
6 7 8 0
-6 -8 0
-7 -8 0
-3 -8 9 0
3 -9 0
8 -9 0
9 7 10 0
-9 -10 0
-7 -10 0
11 12 13 0
-11 -13 0
-12 -13 0
-11 -12 14 0
11 -14 0
12 -14 0
13 14 15 0
-13 -15 0
-14 -15 0
10 -15 16 0
-10 -16 0
15 -16 0
16 14 17 0
-16 -17 0
-14 -17 0
18 19 20 0
-18 -20 0
-19 -20 0
-18 -19 21 0
18 -21 0
19 -21 0
20 21 22 0
-20 -22 0
-21 -22 0
17 -22 23 0
-17 -23 0
22 -23 0
23 21 24 0
-23 -24 0
-21 -24 0
25 26 27 0
-25 -27 0
-26 -27 0
-25 -26 28 0
25 -28 0
26 -28 0
27 28 29 0
-27 -29 0
-28 -29 0
24 -29 30 0
-24 -30 0
29 -30 0
30 28 31 0
-30 -31 0
-28 -31 0
32 33 34 0
-32 -34 0
-33 -34 0
-32 -33 35 0
32 -35 0
33 -35 0
34 35 36 0
-34 -36 0
-35 -36 0
31 -36 37 0
-31 -37 0
36 -37 0
37 35 38 0
-37 -38 0
-35 -38 0
39 40 41 0
-39 -41 0
-40 -41 0
-39 -40 42 0
39 -42 0
40 -42 0
41 42 43 0
-41 -43 0
-42 -43 0
38 -43 44 0
-38 -44 0
43 -44 0
44 42 45 0
-44 -45 0
-42 -45 0
-45 -46 47 0
45 -47 0
46 -47 0
47 48 49 0
-47 -49 0
-48 -49 0
45 46 50 0
-45 -50 0
-46 -50 0
-49 50 51 0
49 -51 0
-50 -51 0
3 8 52 0
-3 -52 0
-8 -52 0
52 9 53 0
-52 -53 0
-9 -53 0
53 5 54 0
-53 -54 0
-5 -54 0
3 -1 55 0
-3 -55 0
1 -55 0
55 2 56 0
-55 -56 0
-2 -56 0
-54 -56 57 0
54 -57 0
56 -57 0
-10 15 58 0
10 -58 0
-15 -58 0
58 16 59 0
-58 -59 0
-16 -59 0
59 12 60 0
-59 -60 0
-12 -60 0
-57 -60 61 0
57 -61 0
60 -61 0
-17 22 62 0
17 -62 0
-22 -62 0
62 23 63 0
-62 -63 0
-23 -63 0
63 19 64 0
-63 -64 0
-19 -64 0
-61 -64 65 0
61 -65 0
64 -65 0
-24 29 66 0
24 -66 0
-29 -66 0
66 30 67 0
-66 -67 0
-30 -67 0
67 26 68 0
-67 -68 0
-26 -68 0
-65 -68 69 0
65 -69 0
68 -69 0
-31 36 70 0
31 -70 0
-36 -70 0
70 37 71 0
-70 -71 0
-37 -71 0
71 33 72 0
-71 -72 0
-33 -72 0
-69 -72 73 0
69 -73 0
72 -73 0
-38 43 74 0
38 -74 0
-43 -74 0
74 44 75 0
-74 -75 0
-44 -75 0
75 40 76 0
-75 -76 0
-40 -76 0
-73 -76 77 0
73 -77 0
76 -77 0
51 -77 78 0
-51 -78 0
77 -78 0
69 72 79 0
-69 -79 0
-72 -79 0
79 73 80 0
-79 -80 0
-73 -80 0
80 81 82 0
-80 -82 0
-81 -82 0
61 64 83 0
-61 -83 0
-64 -83 0
83 65 84 0
-83 -84 0
-65 -84 0
84 85 86 0
-84 -86 0
-85 -86 0
60 87 88 0
-60 -88 0
-87 -88 0
88 61 89 0
-88 -89 0
-61 -89 0
-60 -87 90 0
60 -90 0
87 -90 0
56 91 92 0
-56 -92 0
-91 -92 0
54 93 94 0
-54 -94 0
-93 -94 0
92 94 95 0
-92 -95 0
-94 -95 0
90 95 96 0
-90 -96 0
-95 -96 0
-54 -93 97 0
54 -97 0
93 -97 0
-96 97 98 0
96 -98 0
-97 -98 0
-89 98 99 0
89 -99 0
-98 -99 0
86 -99 100 0
-86 -100 0
99 -100 0
-84 -85 101 0
84 -101 0
85 -101 0
100 101 102 0
-100 -102 0
-101 -102 0
65 68 103 0
-65 -103 0
-68 -103 0
103 69 104 0
-103 -104 0
-69 -104 0
-104 -105 106 0
104 -106 0
105 -106 0
-102 106 107 0
102 -107 0
-106 -107 0
104 105 108 0
-104 -108 0
-105 -108 0
107 108 109 0
-107 -109 0
-108 -109 0
82 -109 110 0
-82 -110 0
109 -110 0
-80 -81 111 0
80 -111 0
81 -111 0
110 111 112 0
-110 -112 0
-111 -112 0
73 76 113 0
-73 -113 0
-76 -113 0
113 77 114 0
-113 -114 0
-77 -114 0
-114 -115 116 0
114 -116 0
115 -116 0
-112 116 117 0
112 -117 0
-116 -117 0
114 115 118 0
-114 -118 0
-115 -118 0
117 118 119 0
-117 -119 0
-118 -119 0
-119 120 121 0
119 -121 0
-120 -121 0
-78 -121 122 0
78 -122 0
121 -122 0
78 121 123 0
-78 -123 0
-121 -123 0
-51 77 124 0
51 -124 0
-77 -124 0
119 -120 125 0
-119 -125 0
120 -125 0
124 125 126 0
-124 -126 0
-125 -126 0
-123 126 127 0
123 -127 0
-126 -127 0
122 127 128 0
-122 -128 0
-127 -128 0
-128 0
